c Generated map
c Size: 13 * 13, weights in range: 1 to 10, walls: False, with ratio 0.2
c dim 1 of 4
c
p sp 169 312
c graph contains 169 nodes and 312 arcs
c
a 1 14 6
a 14 1 6
a 1 2 3
a 2 1 3
a 2 15 2
a 15 2 2
a 2 3 4
a 3 2 4
a 3 16 9
a 16 3 9
a 3 4 4
a 4 3 4
a 4 17 5
a 17 4 5
a 4 5 8
a 5 4 8
a 5 18 1
a 18 5 1
a 5 6 6
a 6 5 6
a 6 19 10
a 19 6 10
a 6 7 1
a 7 6 1
a 7 20 5
a 20 7 5
a 7 8 5
a 8 7 5
a 8 21 1
a 21 8 1
a 8 9 3
a 9 8 3
a 9 22 3
a 22 9 3
a 9 10 10
a 10 9 10
a 10 23 7
a 23 10 7
a 10 11 1
a 11 10 1
a 11 24 8
a 24 11 8
a 11 12 8
a 12 11 8
a 12 25 5
a 25 12 5
a 12 13 4
a 13 12 4
a 13 26 3
a 26 13 3
a 14 27 9
a 27 14 9
a 14 15 3
a 15 14 3
a 15 28 10
a 28 15 10
a 15 16 5
a 16 15 5
a 16 29 4
a 29 16 4
a 16 17 5
a 17 16 5
a 17 30 2
a 30 17 2
a 17 18 9
a 18 17 9
a 18 31 3
a 31 18 3
a 18 19 7
a 19 18 7
a 19 32 4
a 32 19 4
a 19 20 2
a 20 19 2
a 20 33 3
a 33 20 3
a 20 21 5
a 21 20 5
a 21 34 1
a 34 21 1
a 21 22 1
a 22 21 1
a 22 35 3
a 35 22 3
a 22 23 2
a 23 22 2
a 23 36 8
a 36 23 8
a 23 24 6
a 24 23 6
a 24 37 2
a 37 24 2
a 24 25 8
a 25 24 8
a 25 38 4
a 38 25 4
a 25 26 3
a 26 25 3
a 26 39 2
a 39 26 2
a 27 40 7
a 40 27 7
a 27 28 5
a 28 27 5
a 28 41 3
a 41 28 3
a 28 29 5
a 29 28 5
a 29 42 6
a 42 29 6
a 29 30 3
a 30 29 3
a 30 43 2
a 43 30 2
a 30 31 3
a 31 30 3
a 31 44 9
a 44 31 9
a 31 32 5
a 32 31 5
a 32 45 1
a 45 32 1
a 32 33 3
a 33 32 3
a 33 46 4
a 46 33 4
a 33 34 3
a 34 33 3
a 34 47 8
a 47 34 8
a 34 35 4
a 35 34 4
a 35 48 5
a 48 35 5
a 35 36 2
a 36 35 2
a 36 49 1
a 49 36 1
a 36 37 2
a 37 36 2
a 37 50 10
a 50 37 10
a 37 38 10
a 38 37 10
a 38 51 5
a 51 38 5
a 38 39 1
a 39 38 1
a 39 52 5
a 52 39 5
a 40 53 3
a 53 40 3
a 40 41 5
a 41 40 5
a 41 54 10
a 54 41 10
a 41 42 7
a 42 41 7
a 42 55 9
a 55 42 9
a 42 43 6
a 43 42 6
a 43 56 8
a 56 43 8
a 43 44 6
a 44 43 6
a 44 57 3
a 57 44 3
a 44 45 8
a 45 44 8
a 45 58 9
a 58 45 9
a 45 46 6
a 46 45 6
a 46 59 9
a 59 46 9
a 46 47 1
a 47 46 1
a 47 60 1
a 60 47 1
a 47 48 5
a 48 47 5
a 48 61 10
a 61 48 10
a 48 49 3
a 49 48 3
a 49 62 2
a 62 49 2
a 49 50 10
a 50 49 10
a 50 63 2
a 63 50 2
a 50 51 10
a 51 50 10
a 51 64 7
a 64 51 7
a 51 52 1
a 52 51 1
a 52 65 1
a 65 52 1
a 53 66 4
a 66 53 4
a 53 54 6
a 54 53 6
a 54 67 8
a 67 54 8
a 54 55 2
a 55 54 2
a 55 68 5
a 68 55 5
a 55 56 2
a 56 55 2
a 56 69 6
a 69 56 6
a 56 57 5
a 57 56 5
a 57 70 7
a 70 57 7
a 57 58 9
a 58 57 9
a 58 71 1
a 71 58 1
a 58 59 2
a 59 58 2
a 59 72 8
a 72 59 8
a 59 60 6
a 60 59 6
a 60 73 9
a 73 60 9
a 60 61 2
a 61 60 2
a 61 74 8
a 74 61 8
a 61 62 2
a 62 61 2
a 62 75 6
a 75 62 6
a 62 63 9
a 63 62 9
a 63 76 2
a 76 63 2
a 63 64 6
a 64 63 6
a 64 77 4
a 77 64 4
a 64 65 3
a 65 64 3
a 65 78 8
a 78 65 8
a 66 79 4
a 79 66 4
a 66 67 1
a 67 66 1
a 67 80 1
a 80 67 1
a 67 68 5
a 68 67 5
a 68 81 9
a 81 68 9
a 68 69 5
a 69 68 5
a 69 82 9
a 82 69 9
a 69 70 6
a 70 69 6
a 70 83 1
a 83 70 1
a 70 71 3
a 71 70 3
a 71 84 8
a 84 71 8
a 71 72 9
a 72 71 9
a 72 85 3
a 85 72 3
a 72 73 6
a 73 72 6
a 73 86 10
a 86 73 10
a 73 74 5
a 74 73 5
a 74 87 6
a 87 74 6
a 74 75 3
a 75 74 3
a 75 88 5
a 88 75 5
a 75 76 1
a 76 75 1
a 76 89 6
a 89 76 6
a 76 77 8
a 77 76 8
a 77 90 5
a 90 77 5
a 77 78 8
a 78 77 8
a 78 91 1
a 91 78 1
a 79 92 5
a 92 79 5
a 79 80 6
a 80 79 6
a 80 93 8
a 93 80 8
a 80 81 6
a 81 80 6
a 81 94 3
a 94 81 3
a 81 82 8
a 82 81 8
a 82 95 1
a 95 82 1
a 82 83 5
a 83 82 5
a 83 96 9
a 96 83 9
a 83 84 10
a 84 83 10
a 84 97 2
a 97 84 2
a 84 85 4
a 85 84 4
a 85 98 5
a 98 85 5
a 85 86 4
a 86 85 4
a 86 99 7
a 99 86 7
a 86 87 8
a 87 86 8
a 87 100 7
a 100 87 7
a 87 88 10
a 88 87 10
a 88 101 7
a 101 88 7
a 88 89 4
a 89 88 4
a 89 102 10
a 102 89 10
a 89 90 8
a 90 89 8
a 90 103 8
a 103 90 8
a 90 91 8
a 91 90 8
a 91 104 9
a 104 91 9
a 92 105 7
a 105 92 7
a 92 93 2
a 93 92 2
a 93 106 9
a 106 93 9
a 93 94 9
a 94 93 9
a 94 107 8
a 107 94 8
a 94 95 6
a 95 94 6
a 95 108 4
a 108 95 4
a 95 96 10
a 96 95 10
a 96 109 4
a 109 96 4
a 96 97 5
a 97 96 5
a 97 110 9
a 110 97 9
a 97 98 9
a 98 97 9
a 98 111 3
a 111 98 3
a 98 99 6
a 99 98 6
a 99 112 8
a 112 99 8
a 99 100 9
a 100 99 9
a 100 113 3
a 113 100 3
a 100 101 2
a 101 100 2
a 101 114 4
a 114 101 4
a 101 102 8
a 102 101 8
a 102 115 6
a 115 102 6
a 102 103 5
a 103 102 5
a 103 116 6
a 116 103 6
a 103 104 9
a 104 103 9
a 104 117 3
a 117 104 3
a 105 118 5
a 118 105 5
a 105 106 10
a 106 105 10
a 106 119 1
a 119 106 1
a 106 107 6
a 107 106 6
a 107 120 5
a 120 107 5
a 107 108 3
a 108 107 3
a 108 121 2
a 121 108 2
a 108 109 2
a 109 108 2
a 109 122 6
a 122 109 6
a 109 110 10
a 110 109 10
a 110 123 7
a 123 110 7
a 110 111 5
a 111 110 5
a 111 124 6
a 124 111 6
a 111 112 3
a 112 111 3
a 112 125 8
a 125 112 8
a 112 113 4
a 113 112 4
a 113 126 2
a 126 113 2
a 113 114 9
a 114 113 9
a 114 127 10
a 127 114 10
a 114 115 10
a 115 114 10
a 115 128 1
a 128 115 1
a 115 116 5
a 116 115 5
a 116 129 4
a 129 116 4
a 116 117 9
a 117 116 9
a 117 130 1
a 130 117 1
a 118 131 7
a 131 118 7
a 118 119 4
a 119 118 4
a 119 132 8
a 132 119 8
a 119 120 9
a 120 119 9
a 120 133 9
a 133 120 9
a 120 121 6
a 121 120 6
a 121 134 4
a 134 121 4
a 121 122 1
a 122 121 1
a 122 135 4
a 135 122 4
a 122 123 10
a 123 122 10
a 123 136 4
a 136 123 4
a 123 124 6
a 124 123 6
a 124 137 4
a 137 124 4
a 124 125 1
a 125 124 1
a 125 138 2
a 138 125 2
a 125 126 9
a 126 125 9
a 126 139 6
a 139 126 6
a 126 127 10
a 127 126 10
a 127 140 7
a 140 127 7
a 127 128 9
a 128 127 9
a 128 141 6
a 141 128 6
a 128 129 10
a 129 128 10
a 129 142 2
a 142 129 2
a 129 130 7
a 130 129 7
a 130 143 8
a 143 130 8
a 131 144 4
a 144 131 4
a 131 132 2
a 132 131 2
a 132 145 3
a 145 132 3
a 132 133 9
a 133 132 9
a 133 146 10
a 146 133 10
a 133 134 4
a 134 133 4
a 134 147 9
a 147 134 9
a 134 135 7
a 135 134 7
a 135 148 1
a 148 135 1
a 135 136 6
a 136 135 6
a 136 149 7
a 149 136 7
a 136 137 3
a 137 136 3
a 137 150 9
a 150 137 9
a 137 138 4
a 138 137 4
a 138 151 7
a 151 138 7
a 138 139 7
a 139 138 7
a 139 152 1
a 152 139 1
a 139 140 8
a 140 139 8
a 140 153 7
a 153 140 7
a 140 141 7
a 141 140 7
a 141 154 5
a 154 141 5
a 141 142 2
a 142 141 2
a 142 155 8
a 155 142 8
a 142 143 5
a 143 142 5
a 143 156 9
a 156 143 9
a 144 157 8
a 157 144 8
a 144 145 3
a 145 144 3
a 145 158 7
a 158 145 7
a 145 146 9
a 146 145 9
a 146 159 5
a 159 146 5
a 146 147 9
a 147 146 9
a 147 160 3
a 160 147 3
a 147 148 8
a 148 147 8
a 148 161 7
a 161 148 7
a 148 149 4
a 149 148 4
a 149 162 9
a 162 149 9
a 149 150 6
a 150 149 6
a 150 163 3
a 163 150 3
a 150 151 3
a 151 150 3
a 151 164 7
a 164 151 7
a 151 152 3
a 152 151 3
a 152 165 5
a 165 152 5
a 152 153 3
a 153 152 3
a 153 166 1
a 166 153 1
a 153 154 7
a 154 153 7
a 154 167 7
a 167 154 7
a 154 155 4
a 155 154 4
a 155 168 3
a 168 155 3
a 155 156 6
a 156 155 6
a 156 169 6
a 169 156 6
a 157 158 5
a 158 157 5
a 158 159 10
a 159 158 10
a 159 160 6
a 160 159 6
a 160 161 7
a 161 160 7
a 161 162 10
a 162 161 10
a 162 163 10
a 163 162 10
a 163 164 5
a 164 163 5
a 164 165 5
a 165 164 5
a 165 166 7
a 166 165 7
a 166 167 8
a 167 166 8
a 167 168 6
a 168 167 6
a 168 169 5
a 169 168 5
